# Random Circle Problem
param d := 0.05; 
param n := 10; 
param radius := 2.00; 
param v0 := 
1 5.59
2 5.86
3 4.98
4 5.21
5 5.02
6 5.87
7 5.47
8 5.80
9 4.96
10 5.71
;
param cap := 
1 3.59546
2 4.07067
3 3.87505
4 5.50240
5 6.16188
6 0.01681
7 1.05121
8 1.25737
9 2.25475
10 2.19995
;
param x0 := 
1 2.00
2 1.62
3 0.62
4 -0.62
5 -1.62
6 -2.00
7 -1.62
8 -0.62
9 0.62
10 1.62
;
param y0 := 
1 -0.00
2 1.18
3 1.90
4 1.90
5 1.18
6 0.00
7 -1.18
8 -1.90
9 -1.90
10 -1.18
;
